100
128
15
22
3
27
3
64
54
10
7
25
56
46
11
23
4
15
28
17
27
28
27
41
62
1
26
44
35
22
47
47
2
6
10
56
47
63
64
27
32
46
36
35
36
45
57
40
5
32
38
11
41
6
1
15
54
45
12
1
27
50
36
6
35
64
21
6
39
42
35
20
46
55
57
25
11
18
1
33
45
24
8
7
27
35
17
33
34
54
47
45
10
36
37
55
64
42
37
9
1
41